problem_generation/data/GISP/train/er_n=61_m=1093_p=0.60_SET2_setparam=100.00_alpha=0.50_190.lp
maximize
OBJ:100x0 + 100x1 + 100x2 + 100x3 + 100x4 + 100x5 + 100x6 + 100x7 + 100x8 + 100x9 + 100x10 + 100x11 + 100x12 + 100x13 + 100x14 + 100x15 + 100x16 + 100x17 + 100x18 + 100x19 + 100x20 + 100x21 + 100x22 + 100x23 + 100x24 + 100x25 + 100x26 + 100x27 + 100x28 + 100x29 + 100x30 + 100x31 + 100x32 + 100x33 + 100x34 + 100x35 + 100x36 + 100x37 + 100x38 + 100x39 + 100x40 + 100x41 + 100x42 + 100x43 + 100x44 + 100x45 + 100x46 + 100x47 + 100x48 + 100x49 + 100x50 + 100x51 + 100x52 + 100x53 + 100x54 + 100x55 + 100x56 + 100x57 + 100x58 + 100x59 + 100x60 - y47_53 - y15_30 - y26_39 - y29_32 - y8_9 - y0_5 - y29_41 - y11_14 - y29_50 - y40_50 - y29_59 - y10_45 - y44_47 - y25_43 - y22_28 - y3_24 - y43_60 - y3_33 - y14_51 - y15_16 - y7_12 - y17_44 - y18_21 - y47_57 - y6_34 - y48_49 - y29_45 - y21_59 - y25_29 - y2_36 - y25_38 - y10_49 - y10_58 - y14_19 - y14_28 - y17_39 - y36_52 - y5_46 - y48_53 - y21_36 - y40_49 - y21_45 - y21_54 - y2_31 - y32_41 - y3_14 - y32_59 - y17_25 - y36_38 - y7_11 - y9_30 - y55_60 - y28_43 - y47_56 - y5_50 - y28_52 - y5_59 - y6_24 - y21_31 - y40_44 - y39_48 - y10_21 - y54_55 - y10_30 - y25_28 - y23_58 - y2_35 - y32_36 - y3_9 - y24_41 - y35_41 - y43_54 - y9_25 - y47_51 - y17_47 - y28_47 - y6_19 - y6_28 - y21_26 - y6_46 - y20_48 - y12_44 - y31_57 - y4_49 - y4_58 - y32_40 - y51_53 - y1_34 - y13_36 - y24_36 - y32_49 - y35_36 - y35_45 - y16_41 - y16_50 - y16_59 - y17_24 - y57_60 - y36_37 - y9_29 - y6_23 - y42_44 - y50_57 - y6_32 - y8_60 - y30_60 - y0_56 - y11_56 - y31_34 - y31_43 - y12_39 - y2_16 - y31_52 - y12_48 - y23_48 - y1_29 - y13_31 - y16_27 - y1_38 - y35_40 - y1_47 - y13_49 - y35_49 - y46_55 - y9_24 - y5_35 - y28_37 - y9_33 - y6_18 - y50_52 - y8_46 - y42_48 - y19_55 - y42_57 - y11_51 - y0_60 - y39_42 - y39_51 - y2_11 - y20_47 - y31_47 - y12_43 - y20_56 - y31_56 - y23_52 - y1_15 - y32_39 - y34_58 - y13_35 - y16_31 - y35_44 - y16_40 - y38_46 - y46_59 - y57_59 - y26_53 - y9_28 - y6_13 - y19_41 - y42_43 - y0_37 - y30_50 - y11_46 - y19_59 - y12_20 - y20_33 - y39_46 - y23_29 - y20_51 - y12_47 - y23_56 - y1_19 - y34_53 - y1_28 - y16_26 - y5_16 - y46_54 - y38_50 - y49_50 - y7_44 - y49_59 - y7_53 - y8_36 - y30_45 - y11_41 - y30_54 - y12_15 - y39_41 - y52_60 - y31_37 - y34_39 - y1_14 - y24_25 - y16_21 - y34_57 - y1_32 - y3_51 - y16_30 - y26_34 - y46_49 - y26_43 - y38_45 - y7_39 - y49_54 - y18_48 - y8_13 - y7_57 - y11_18 - y27_44 - y11_27 - y19_40 - y27_53 - y0_36 - y19_49 - y0_45 - y20_23 - y20_32 - y23_28 - y23_37 - y22_41 - y1_18 - y45_52 - y37_48 - y14_55 - y7_34 - y15_56 - y0_4 - y27_30 - y0_13 - y11_13 - y27_39 - y29_58 - y0_40 - y41_50 - y4_10 - y12_23 - y44_55 - y22_45 - y45_47 - y3_41 - y34_56 - y3_50 - y14_59 - y18_20 - y15_42 - y26_51 - y8_12 - y48_57 - y29_53 - y40_53 - y8_30 - y41_54 - y10_48 - y44_50 - y2_44 - y44_59 - y14_36 - y34_51 - y37_47 - y36_60 - y11_12 - y11_21 - y21_53 - y33_36 - y10_43 - y44_45 - y3_22 - y14_22 - y3_31 - y37_42 - y22_53 - y18_19 - y15_32 - y18_37 - y29_34 - y8_11 - y0_7 - y29_43 - y0_16 - y40_52 - y21_57 - y10_38 - y2_34 - y10_47 - y44_49 - y2_43 - y51_57 - y14_26 - y14_44 - y15_18 - y17_46 - y28_55 - y9_51 - y9_60 - y29_47 - y6_54 - y2_20 - y33_44 - y2_38 - y3_21 - y43_57 - y24_53 - y3_30 - y1_60 - y16_58 - y17_41 - y9_37 - y6_22 - y9_55 - y29_42 - y40_42 - y6_49 - y10_19 - y10_28 - y2_24 - y2_42 - y32_43 - y13_39 - y35_39 - y32_52 - y13_48 - y17_18 - y17_27 - y9_23 - y47_58 - y17_54 - y28_54 - y9_50 - y50_60 - y6_35 - y6_44 - y21_42 - y39_59 - y20_55 - y54_57 - y12_51 - y13_25 - y32_38 - y13_34 - y32_47 - y1_41 - y13_43 - y24_43 - y16_39 - y32_56 - y13_52 - y35_43 - y43_56 - y1_59 - y9_18 - y28_31 - y17_40 - y17_49 - y6_12 - y9_45 - y58_59 - y6_30 - y6_39 - y19_58 - y2_5 - y31_41 - y39_54 - y13_20 - y4_51 - y24_29 - y32_42 - y24_38 - y35_38 - y43_51 - y13_47 - y35_47 - y16_43 - y24_56 - y5_24 - y36_39 - y9_22 - y38_58 - y17_35 - y49_58 - y8_53 - y42_55 - y0_49 - y0_58 - y2_9 - y20_45 - y31_54 - y54_56 - y12_50 - y32_37 - y24_42 - y16_47 - y46_48 - y17_21 - y46_57 - y28_30 - y27_34 - y27_43 - y19_39 - y30_39 - y42_50 - y12_27 - y20_40 - y4_23 - y31_40 - y12_45 - y31_58 - y4_41 - y12_54 - y23_54 - y1_26 - y13_28 - y34_60 - y45_60 - y13_37 - y24_37 - y35_37 - y56_60 - y16_42 - y38_39 - y9_12 - y15_46 - y9_21 - y26_55 - y38_57 - y27_29 - y7_60 - y18_60 - y0_30 - y8_43 - y42_45 - y42_54 - y12_13 - y20_26 - y20_35 - y23_31 - y20_44 - y31_44 - y1_3 - y4_36 - y1_12 - y1_21 - y13_23 - y4_54 - y53_59 - y1_30 - y3_58 - y37_60 - y46_47 - y46_56 - y26_50 - y49_52 - y18_46 - y18_55 - y8_20 - y27_42 - y11_25 - y30_38 - y11_34 - y8_47 - y30_47 - y42_49 - y11_43 - y19_56 - y11_52 - y12_17 - y12_26 - y23_26 - y33_58 - y4_31 - y16_23 - y34_59 - y37_55 - y15_36 - y38_47 - y26_54 - y0_11 - y8_24 - y19_24 - y8_33 - y0_38 - y0_47 - y20_25 - y4_8 - y52_57 - y4_17 - y33_53 - y23_30 - y44_53 - y25_58 - y22_52 - y3_48 - y14_48 - y15_22 - y7_18 - y38_42 - y18_36 - y26_49 - y7_45 - y18_45 - y15_58 - y8_28 - y29_60 - y0_42 - y11_42 - y41_43 - y33_48 - y33_57 - y44_57 - y2_51 - y25_53 - y22_38 - y14_34 - y34_49 - y3_43 - y14_52 - y26_35 - y18_31 - y0_1 - y18_49 - y8_14 - y19_23 - y48_59 - y6_53 - y11_19 - y29_55 - y40_55 - y0_28 - y4_7 - y2_46 - y2_55 - y3_20 - y14_20 - y14_38 - y7_8
 Subject to
C1: x0+x1-y0_1 <=1 
C2: x0+x4-y0_4 <=1 
C3: x0+x5-y0_5 <=1 
C4: x0+x7-y0_7 <=1 
C5: x0+x11-y0_11 <=1 
C6: x0+x13-y0_13 <=1 
C7: x0+x16-y0_16 <=1 
C8: x0+x17 <=1 
C9: x0+x20 <=1 
C10: x0+x23 <=1 
C11: x0+x25 <=1 
C12: x0+x26 <=1 
C13: x0+x27 <=1 
C14: x0+x28-y0_28 <=1 
C15: x0+x30-y0_30 <=1 
C16: x0+x31 <=1 
C17: x0+x32 <=1 
C18: x0+x35 <=1 
C19: x0+x36-y0_36 <=1 
C20: x0+x37-y0_37 <=1 
C21: x0+x38-y0_38 <=1 
C22: x0+x40-y0_40 <=1 
C23: x0+x41 <=1 
C24: x0+x42-y0_42 <=1 
C25: x0+x43 <=1 
C26: x0+x45-y0_45 <=1 
C27: x0+x47-y0_47 <=1 
C28: x0+x49-y0_49 <=1 
C29: x0+x56-y0_56 <=1 
C30: x0+x57 <=1 
C31: x0+x58-y0_58 <=1 
C32: x0+x59 <=1 
C33: x0+x60-y0_60 <=1 
C34: x1+x3-y1_3 <=1 
C35: x1+x4 <=1 
C36: x1+x5 <=1 
C37: x1+x7 <=1 
C38: x1+x8 <=1 
C39: x1+x9 <=1 
C40: x1+x12-y1_12 <=1 
C41: x1+x14-y1_14 <=1 
C42: x1+x15-y1_15 <=1 
C43: x1+x17 <=1 
C44: x1+x18-y1_18 <=1 
C45: x1+x19-y1_19 <=1 
C46: x1+x21-y1_21 <=1 
C47: x1+x22 <=1 
C48: x1+x23 <=1 
C49: x1+x26-y1_26 <=1 
C50: x1+x27 <=1 
C51: x1+x28-y1_28 <=1 
C52: x1+x29-y1_29 <=1 
C53: x1+x30-y1_30 <=1 
C54: x1+x32-y1_32 <=1 
C55: x1+x34-y1_34 <=1 
C56: x1+x35 <=1 
C57: x1+x36 <=1 
C58: x1+x38-y1_38 <=1 
C59: x1+x41-y1_41 <=1 
C60: x1+x46 <=1 
C61: x1+x47-y1_47 <=1 
C62: x1+x59-y1_59 <=1 
C63: x1+x60-y1_60 <=1 
C64: x2+x4 <=1 
C65: x2+x5-y2_5 <=1 
C66: x2+x9-y2_9 <=1 
C67: x2+x10 <=1 
C68: x2+x11-y2_11 <=1 
C69: x2+x15 <=1 
C70: x2+x16-y2_16 <=1 
C71: x2+x20-y2_20 <=1 
C72: x2+x23 <=1 
C73: x2+x24-y2_24 <=1 
C74: x2+x27 <=1 
C75: x2+x31-y2_31 <=1 
C76: x2+x32 <=1 
C77: x2+x34-y2_34 <=1 
C78: x2+x35-y2_35 <=1 
C79: x2+x36-y2_36 <=1 
C80: x2+x38-y2_38 <=1 
C81: x2+x40 <=1 
C82: x2+x41 <=1 
C83: x2+x42-y2_42 <=1 
C84: x2+x43-y2_43 <=1 
C85: x2+x44-y2_44 <=1 
C86: x2+x45 <=1 
C87: x2+x46-y2_46 <=1 
C88: x2+x47 <=1 
C89: x2+x48 <=1 
C90: x2+x50 <=1 
C91: x2+x51-y2_51 <=1 
C92: x2+x52 <=1 
C93: x2+x54 <=1 
C94: x2+x55-y2_55 <=1 
C95: x2+x56 <=1 
C96: x2+x57 <=1 
C97: x2+x58 <=1 
C98: x2+x60 <=1 
C99: x3+x4 <=1 
C100: x3+x6 <=1 
C101: x3+x7 <=1 
C102: x3+x8 <=1 
C103: x3+x9-y3_9 <=1 
C104: x3+x10 <=1 
C105: x3+x11 <=1 
C106: x3+x13 <=1 
C107: x3+x14-y3_14 <=1 
C108: x3+x17 <=1 
C109: x3+x20-y3_20 <=1 
C110: x3+x21-y3_21 <=1 
C111: x3+x22-y3_22 <=1 
C112: x3+x24-y3_24 <=1 
C113: x3+x26 <=1 
C114: x3+x29 <=1 
C115: x3+x30-y3_30 <=1 
C116: x3+x31-y3_31 <=1 
C117: x3+x33-y3_33 <=1 
C118: x3+x34 <=1 
C119: x3+x38 <=1 
C120: x3+x39 <=1 
C121: x3+x40 <=1 
C122: x3+x41-y3_41 <=1 
C123: x3+x43-y3_43 <=1 
C124: x3+x45 <=1 
C125: x3+x46 <=1 
C126: x3+x48-y3_48 <=1 
C127: x3+x50-y3_50 <=1 
C128: x3+x51-y3_51 <=1 
C129: x3+x53 <=1 
C130: x3+x58-y3_58 <=1 
C131: x4+x7-y4_7 <=1 
C132: x4+x8-y4_8 <=1 
C133: x4+x10-y4_10 <=1 
C134: x4+x11 <=1 
C135: x4+x14 <=1 
C136: x4+x15 <=1 
C137: x4+x17-y4_17 <=1 
C138: x4+x23-y4_23 <=1 
C139: x4+x31-y4_31 <=1 
C140: x4+x32 <=1 
C141: x4+x33 <=1 
C142: x4+x36-y4_36 <=1 
C143: x4+x37 <=1 
C144: x4+x40 <=1 
C145: x4+x41-y4_41 <=1 
C146: x4+x42 <=1 
C147: x4+x44 <=1 
C148: x4+x46 <=1 
C149: x4+x47 <=1 
C150: x4+x49-y4_49 <=1 
C151: x4+x50 <=1 
C152: x4+x51-y4_51 <=1 
C153: x4+x53 <=1 
C154: x4+x54-y4_54 <=1 
C155: x4+x58-y4_58 <=1 
C156: x4+x59 <=1 
C157: x4+x60 <=1 
C158: x5+x6 <=1 
C159: x5+x8 <=1 
C160: x5+x10 <=1 
C161: x5+x11 <=1 
C162: x5+x15 <=1 
C163: x5+x16-y5_16 <=1 
C164: x5+x19 <=1 
C165: x5+x20 <=1 
C166: x5+x21 <=1 
C167: x5+x24-y5_24 <=1 
C168: x5+x27 <=1 
C169: x5+x28 <=1 
C170: x5+x29 <=1 
C171: x5+x30 <=1 
C172: x5+x32 <=1 
C173: x5+x35-y5_35 <=1 
C174: x5+x37 <=1 
C175: x5+x39 <=1 
C176: x5+x41 <=1 
C177: x5+x42 <=1 
C178: x5+x46-y5_46 <=1 
C179: x5+x47 <=1 
C180: x5+x49 <=1 
C181: x5+x50-y5_50 <=1 
C182: x5+x51 <=1 
C183: x5+x52 <=1 
C184: x5+x53 <=1 
C185: x5+x59-y5_59 <=1 
C186: x6+x7 <=1 
C187: x6+x9 <=1 
C188: x6+x12-y6_12 <=1 
C189: x6+x13-y6_13 <=1 
C190: x6+x15 <=1 
C191: x6+x16 <=1 
C192: x6+x17 <=1 
C193: x6+x18-y6_18 <=1 
C194: x6+x19-y6_19 <=1 
C195: x6+x20 <=1 
C196: x6+x22-y6_22 <=1 
C197: x6+x23-y6_23 <=1 
C198: x6+x24-y6_24 <=1 
C199: x6+x27 <=1 
C200: x6+x28-y6_28 <=1 
C201: x6+x30-y6_30 <=1 
C202: x6+x32-y6_32 <=1 
C203: x6+x34-y6_34 <=1 
C204: x6+x35-y6_35 <=1 
C205: x6+x36 <=1 
C206: x6+x37 <=1 
C207: x6+x39-y6_39 <=1 
C208: x6+x40 <=1 
C209: x6+x42 <=1 
C210: x6+x44-y6_44 <=1 
C211: x6+x46-y6_46 <=1 
C212: x6+x47 <=1 
C213: x6+x48 <=1 
C214: x6+x49-y6_49 <=1 
C215: x6+x53-y6_53 <=1 
C216: x6+x54-y6_54 <=1 
C217: x6+x58 <=1 
C218: x6+x60 <=1 
C219: x7+x8-y7_8 <=1 
C220: x7+x11-y7_11 <=1 
C221: x7+x12-y7_12 <=1 
C222: x7+x13 <=1 
C223: x7+x14 <=1 
C224: x7+x18-y7_18 <=1 
C225: x7+x20 <=1 
C226: x7+x22 <=1 
C227: x7+x23 <=1 
C228: x7+x24 <=1 
C229: x7+x26 <=1 
C230: x7+x28 <=1 
C231: x7+x30 <=1 
C232: x7+x33 <=1 
C233: x7+x34-y7_34 <=1 
C234: x7+x35 <=1 
C235: x7+x36 <=1 
C236: x7+x37 <=1 
C237: x7+x38 <=1 
C238: x7+x39-y7_39 <=1 
C239: x7+x40 <=1 
C240: x7+x41 <=1 
C241: x7+x42 <=1 
C242: x7+x43 <=1 
C243: x7+x44-y7_44 <=1 
C244: x7+x45-y7_45 <=1 
C245: x7+x47 <=1 
C246: x7+x49 <=1 
C247: x7+x53-y7_53 <=1 
C248: x7+x56 <=1 
C249: x7+x57-y7_57 <=1 
C250: x7+x59 <=1 
C251: x7+x60-y7_60 <=1 
C252: x8+x9-y8_9 <=1 
C253: x8+x10 <=1 
C254: x8+x11-y8_11 <=1 
C255: x8+x12-y8_12 <=1 
C256: x8+x13-y8_13 <=1 
C257: x8+x14-y8_14 <=1 
C258: x8+x15 <=1 
C259: x8+x18 <=1 
C260: x8+x20-y8_20 <=1 
C261: x8+x24-y8_24 <=1 
C262: x8+x27 <=1 
C263: x8+x28-y8_28 <=1 
C264: x8+x29 <=1 
C265: x8+x30-y8_30 <=1 
C266: x8+x31 <=1 
C267: x8+x33-y8_33 <=1 
C268: x8+x34 <=1 
C269: x8+x35 <=1 
C270: x8+x36-y8_36 <=1 
C271: x8+x43-y8_43 <=1 
C272: x8+x45 <=1 
C273: x8+x46-y8_46 <=1 
C274: x8+x47-y8_47 <=1 
C275: x8+x52 <=1 
C276: x8+x53-y8_53 <=1 
C277: x8+x54 <=1 
C278: x8+x56 <=1 
C279: x8+x57 <=1 
C280: x8+x59 <=1 
C281: x8+x60-y8_60 <=1 
C282: x9+x12-y9_12 <=1 
C283: x9+x16 <=1 
C284: x9+x17 <=1 
C285: x9+x18-y9_18 <=1 
C286: x9+x19 <=1 
C287: x9+x20 <=1 
C288: x9+x21-y9_21 <=1 
C289: x9+x22-y9_22 <=1 
C290: x9+x23-y9_23 <=1 
C291: x9+x24-y9_24 <=1 
C292: x9+x25-y9_25 <=1 
C293: x9+x26 <=1 
C294: x9+x27 <=1 
C295: x9+x28-y9_28 <=1 
C296: x9+x29-y9_29 <=1 
C297: x9+x30-y9_30 <=1 
C298: x9+x33-y9_33 <=1 
C299: x9+x35 <=1 
C300: x9+x36 <=1 
C301: x9+x37-y9_37 <=1 
C302: x9+x39 <=1 
C303: x9+x41 <=1 
C304: x9+x42 <=1 
C305: x9+x43 <=1 
C306: x9+x44 <=1 
C307: x9+x45-y9_45 <=1 
C308: x9+x46 <=1 
C309: x9+x47 <=1 
C310: x9+x50-y9_50 <=1 
C311: x9+x51-y9_51 <=1 
C312: x9+x53 <=1 
C313: x9+x55-y9_55 <=1 
C314: x9+x56 <=1 
C315: x9+x57 <=1 
C316: x9+x58 <=1 
C317: x9+x59 <=1 
C318: x9+x60-y9_60 <=1 
C319: x10+x12 <=1 
C320: x10+x13 <=1 
C321: x10+x14 <=1 
C322: x10+x17 <=1 
C323: x10+x18 <=1 
C324: x10+x19-y10_19 <=1 
C325: x10+x20 <=1 
C326: x10+x21-y10_21 <=1 
C327: x10+x27 <=1 
C328: x10+x28-y10_28 <=1 
C329: x10+x30-y10_30 <=1 
C330: x10+x32 <=1 
C331: x10+x35 <=1 
C332: x10+x37 <=1 
C333: x10+x38-y10_38 <=1 
C334: x10+x40 <=1 
C335: x10+x41 <=1 
C336: x10+x42 <=1 
C337: x10+x43-y10_43 <=1 
C338: x10+x45-y10_45 <=1 
C339: x10+x47-y10_47 <=1 
C340: x10+x48-y10_48 <=1 
C341: x10+x49-y10_49 <=1 
C342: x10+x51 <=1 
C343: x10+x54 <=1 
C344: x10+x56 <=1 
C345: x10+x57 <=1 
C346: x10+x58-y10_58 <=1 
C347: x10+x59 <=1 
C348: x11+x12-y11_12 <=1 
C349: x11+x13-y11_13 <=1 
C350: x11+x14-y11_14 <=1 
C351: x11+x17 <=1 
C352: x11+x18-y11_18 <=1 
C353: x11+x19-y11_19 <=1 
C354: x11+x20 <=1 
C355: x11+x21-y11_21 <=1 
C356: x11+x23 <=1 
C357: x11+x24 <=1 
C358: x11+x25-y11_25 <=1 
C359: x11+x26 <=1 
C360: x11+x27-y11_27 <=1 
C361: x11+x28 <=1 
C362: x11+x29 <=1 
C363: x11+x30 <=1 
C364: x11+x32 <=1 
C365: x11+x34-y11_34 <=1 
C366: x11+x40 <=1 
C367: x11+x41-y11_41 <=1 
C368: x11+x42-y11_42 <=1 
C369: x11+x43-y11_43 <=1 
C370: x11+x45 <=1 
C371: x11+x46-y11_46 <=1 
C372: x11+x50 <=1 
C373: x11+x51-y11_51 <=1 
C374: x11+x52-y11_52 <=1 
C375: x11+x53 <=1 
C376: x11+x54 <=1 
C377: x11+x56-y11_56 <=1 
C378: x11+x59 <=1 
C379: x11+x60 <=1 
C380: x12+x13-y12_13 <=1 
C381: x12+x14 <=1 
C382: x12+x15-y12_15 <=1 
C383: x12+x17-y12_17 <=1 
C384: x12+x19 <=1 
C385: x12+x20-y12_20 <=1 
C386: x12+x23-y12_23 <=1 
C387: x12+x26-y12_26 <=1 
C388: x12+x27-y12_27 <=1 
C389: x12+x33 <=1 
C390: x12+x34 <=1 
C391: x12+x36 <=1 
C392: x12+x39-y12_39 <=1 
C393: x12+x40 <=1 
C394: x12+x42 <=1 
C395: x12+x43-y12_43 <=1 
C396: x12+x44-y12_44 <=1 
C397: x12+x45-y12_45 <=1 
C398: x12+x47-y12_47 <=1 
C399: x12+x48-y12_48 <=1 
C400: x12+x49 <=1 
C401: x12+x50-y12_50 <=1 
C402: x12+x51-y12_51 <=1 
C403: x12+x52 <=1 
C404: x12+x53 <=1 
C405: x12+x54-y12_54 <=1 
C406: x12+x55 <=1 
C407: x12+x56 <=1 
C408: x12+x58 <=1 
C409: x12+x60 <=1 
C410: x13+x16 <=1 
C411: x13+x17 <=1 
C412: x13+x18 <=1 
C413: x13+x20-y13_20 <=1 
C414: x13+x22 <=1 
C415: x13+x23-y13_23 <=1 
C416: x13+x25-y13_25 <=1 
C417: x13+x27 <=1 
C418: x13+x28-y13_28 <=1 
C419: x13+x29 <=1 
C420: x13+x30 <=1 
C421: x13+x31-y13_31 <=1 
C422: x13+x33 <=1 
C423: x13+x34-y13_34 <=1 
C424: x13+x35-y13_35 <=1 
C425: x13+x36-y13_36 <=1 
C426: x13+x37-y13_37 <=1 
C427: x13+x39-y13_39 <=1 
C428: x13+x43-y13_43 <=1 
C429: x13+x45 <=1 
C430: x13+x46 <=1 
C431: x13+x47-y13_47 <=1 
C432: x13+x48-y13_48 <=1 
C433: x13+x49-y13_49 <=1 
C434: x13+x51 <=1 
C435: x13+x52-y13_52 <=1 
C436: x13+x55 <=1 
C437: x13+x56 <=1 
C438: x14+x16 <=1 
C439: x14+x17 <=1 
C440: x14+x18 <=1 
C441: x14+x19-y14_19 <=1 
C442: x14+x20-y14_20 <=1 
C443: x14+x22-y14_22 <=1 
C444: x14+x24 <=1 
C445: x14+x26-y14_26 <=1 
C446: x14+x27 <=1 
C447: x14+x28-y14_28 <=1 
C448: x14+x34-y14_34 <=1 
C449: x14+x35 <=1 
C450: x14+x36-y14_36 <=1 
C451: x14+x38-y14_38 <=1 
C452: x14+x41 <=1 
C453: x14+x44-y14_44 <=1 
C454: x14+x48-y14_48 <=1 
C455: x14+x49 <=1 
C456: x14+x51-y14_51 <=1 
C457: x14+x52-y14_52 <=1 
C458: x14+x53 <=1 
C459: x14+x55-y14_55 <=1 
C460: x14+x57 <=1 
C461: x14+x59-y14_59 <=1 
C462: x15+x16-y15_16 <=1 
C463: x15+x18-y15_18 <=1 
C464: x15+x19 <=1 
C465: x15+x22-y15_22 <=1 
C466: x15+x26 <=1 
C467: x15+x27 <=1 
C468: x15+x29 <=1 
C469: x15+x30-y15_30 <=1 
C470: x15+x31 <=1 
C471: x15+x32-y15_32 <=1 
C472: x15+x33 <=1 
C473: x15+x36-y15_36 <=1 
C474: x15+x41 <=1 
C475: x15+x42-y15_42 <=1 
C476: x15+x44 <=1 
C477: x15+x46-y15_46 <=1 
C478: x15+x49 <=1 
C479: x15+x50 <=1 
C480: x15+x51 <=1 
C481: x15+x53 <=1 
C482: x15+x55 <=1 
C483: x15+x56-y15_56 <=1 
C484: x15+x57 <=1 
C485: x15+x58-y15_58 <=1 
C486: x15+x59 <=1 
C487: x15+x60 <=1 
C488: x16+x17 <=1 
C489: x16+x19 <=1 
C490: x16+x20 <=1 
C491: x16+x21-y16_21 <=1 
C492: x16+x22 <=1 
C493: x16+x23-y16_23 <=1 
C494: x16+x24 <=1 
C495: x16+x25 <=1 
C496: x16+x26-y16_26 <=1 
C497: x16+x27-y16_27 <=1 
C498: x16+x28 <=1 
C499: x16+x30-y16_30 <=1 
C500: x16+x31-y16_31 <=1 
C501: x16+x34 <=1 
C502: x16+x36 <=1 
C503: x16+x39-y16_39 <=1 
C504: x16+x40-y16_40 <=1 
C505: x16+x41-y16_41 <=1 
C506: x16+x42-y16_42 <=1 
C507: x16+x43-y16_43 <=1 
C508: x16+x44 <=1 
C509: x16+x47-y16_47 <=1 
C510: x16+x48 <=1 
C511: x16+x50-y16_50 <=1 
C512: x16+x51 <=1 
C513: x16+x57 <=1 
C514: x16+x58-y16_58 <=1 
C515: x16+x59-y16_59 <=1 
C516: x16+x60 <=1 
C517: x17+x18-y17_18 <=1 
C518: x17+x19 <=1 
C519: x17+x21-y17_21 <=1 
C520: x17+x22 <=1 
C521: x17+x23 <=1 
C522: x17+x24-y17_24 <=1 
C523: x17+x25-y17_25 <=1 
C524: x17+x27-y17_27 <=1 
C525: x17+x29 <=1 
C526: x17+x33 <=1 
C527: x17+x35-y17_35 <=1 
C528: x17+x36 <=1 
C529: x17+x39-y17_39 <=1 
C530: x17+x40-y17_40 <=1 
C531: x17+x41-y17_41 <=1 
C532: x17+x43 <=1 
C533: x17+x44-y17_44 <=1 
C534: x17+x46-y17_46 <=1 
C535: x17+x47-y17_47 <=1 
C536: x17+x48 <=1 
C537: x17+x49-y17_49 <=1 
C538: x17+x51 <=1 
C539: x17+x53 <=1 
C540: x17+x54-y17_54 <=1 
C541: x17+x55 <=1 
C542: x17+x58 <=1 
C543: x18+x19-y18_19 <=1 
C544: x18+x20-y18_20 <=1 
C545: x18+x21-y18_21 <=1 
C546: x18+x23 <=1 
C547: x18+x27 <=1 
C548: x18+x29 <=1 
C549: x18+x30 <=1 
C550: x18+x31-y18_31 <=1 
C551: x18+x36-y18_36 <=1 
C552: x18+x37-y18_37 <=1 
C553: x18+x38 <=1 
C554: x18+x39 <=1 
C555: x18+x41 <=1 
C556: x18+x43 <=1 
C557: x18+x45-y18_45 <=1 
C558: x18+x46-y18_46 <=1 
C559: x18+x48-y18_48 <=1 
C560: x18+x49-y18_49 <=1 
C561: x18+x55-y18_55 <=1 
C562: x18+x56 <=1 
C563: x18+x58 <=1 
C564: x18+x59 <=1 
C565: x18+x60-y18_60 <=1 
C566: x19+x22 <=1 
C567: x19+x23-y19_23 <=1 
C568: x19+x24-y19_24 <=1 
C569: x19+x25 <=1 
C570: x19+x26 <=1 
C571: x19+x29 <=1 
C572: x19+x31 <=1 
C573: x19+x32 <=1 
C574: x19+x34 <=1 
C575: x19+x37 <=1 
C576: x19+x39-y19_39 <=1 
C577: x19+x40-y19_40 <=1 
C578: x19+x41-y19_41 <=1 
C579: x19+x42 <=1 
C580: x19+x45 <=1 
C581: x19+x46 <=1 
C582: x19+x48 <=1 
C583: x19+x49-y19_49 <=1 
C584: x19+x50 <=1 
C585: x19+x51 <=1 
C586: x19+x55-y19_55 <=1 
C587: x19+x56-y19_56 <=1 
C588: x19+x57 <=1 
C589: x19+x58-y19_58 <=1 
C590: x19+x59-y19_59 <=1 
C591: x20+x21 <=1 
C592: x20+x23-y20_23 <=1 
C593: x20+x24 <=1 
C594: x20+x25-y20_25 <=1 
C595: x20+x26-y20_26 <=1 
C596: x20+x27 <=1 
C597: x20+x29 <=1 
C598: x20+x32-y20_32 <=1 
C599: x20+x33-y20_33 <=1 
C600: x20+x35-y20_35 <=1 
C601: x20+x36 <=1 
C602: x20+x38 <=1 
C603: x20+x40-y20_40 <=1 
C604: x20+x41 <=1 
C605: x20+x44-y20_44 <=1 
C606: x20+x45-y20_45 <=1 
C607: x20+x46 <=1 
C608: x20+x47-y20_47 <=1 
C609: x20+x48-y20_48 <=1 
C610: x20+x49 <=1 
C611: x20+x51-y20_51 <=1 
C612: x20+x55-y20_55 <=1 
C613: x20+x56-y20_56 <=1 
C614: x20+x57 <=1 
C615: x20+x58 <=1 
C616: x20+x60 <=1 
C617: x21+x23 <=1 
C618: x21+x25 <=1 
C619: x21+x26-y21_26 <=1 
C620: x21+x28 <=1 
C621: x21+x29 <=1 
C622: x21+x31-y21_31 <=1 
C623: x21+x32 <=1 
C624: x21+x33 <=1 
C625: x21+x36-y21_36 <=1 
C626: x21+x38 <=1 
C627: x21+x40 <=1 
C628: x21+x41 <=1 
C629: x21+x42-y21_42 <=1 
C630: x21+x43 <=1 
C631: x21+x45-y21_45 <=1 
C632: x21+x50 <=1 
C633: x21+x52 <=1 
C634: x21+x53-y21_53 <=1 
C635: x21+x54-y21_54 <=1 
C636: x21+x57-y21_57 <=1 
C637: x21+x59-y21_59 <=1 
C638: x21+x60 <=1 
C639: x22+x23 <=1 
C640: x22+x24 <=1 
C641: x22+x25 <=1 
C642: x22+x26 <=1 
C643: x22+x27 <=1 
C644: x22+x28-y22_28 <=1 
C645: x22+x29 <=1 
C646: x22+x31 <=1 
C647: x22+x32 <=1 
C648: x22+x33 <=1 
C649: x22+x35 <=1 
C650: x22+x38-y22_38 <=1 
C651: x22+x40 <=1 
C652: x22+x41-y22_41 <=1 
C653: x22+x44 <=1 
C654: x22+x45-y22_45 <=1 
C655: x22+x48 <=1 
C656: x22+x51 <=1 
C657: x22+x52-y22_52 <=1 
C658: x22+x53-y22_53 <=1 
C659: x22+x55 <=1 
C660: x22+x56 <=1 
C661: x22+x58 <=1 
C662: x22+x59 <=1 
C663: x22+x60 <=1 
C664: x23+x24 <=1 
C665: x23+x26-y23_26 <=1 
C666: x23+x28-y23_28 <=1 
C667: x23+x29-y23_29 <=1 
C668: x23+x30-y23_30 <=1 
C669: x23+x31-y23_31 <=1 
C670: x23+x33 <=1 
C671: x23+x37-y23_37 <=1 
C672: x23+x42 <=1 
C673: x23+x45 <=1 
C674: x23+x46 <=1 
C675: x23+x47 <=1 
C676: x23+x48-y23_48 <=1 
C677: x23+x49 <=1 
C678: x23+x51 <=1 
C679: x23+x52-y23_52 <=1 
C680: x23+x54-y23_54 <=1 
C681: x23+x56-y23_56 <=1 
C682: x23+x58-y23_58 <=1 
C683: x23+x59 <=1 
C684: x23+x60 <=1 
C685: x24+x25-y24_25 <=1 
C686: x24+x27 <=1 
C687: x24+x28 <=1 
C688: x24+x29-y24_29 <=1 
C689: x24+x32 <=1 
C690: x24+x33 <=1 
C691: x24+x36-y24_36 <=1 
C692: x24+x37-y24_37 <=1 
C693: x24+x38-y24_38 <=1 
C694: x24+x39 <=1 
C695: x24+x41-y24_41 <=1 
C696: x24+x42-y24_42 <=1 
C697: x24+x43-y24_43 <=1 
C698: x24+x53-y24_53 <=1 
C699: x24+x55 <=1 
C700: x24+x56-y24_56 <=1 
C701: x25+x27 <=1 
C702: x25+x28-y25_28 <=1 
C703: x25+x29-y25_29 <=1 
C704: x25+x30 <=1 
C705: x25+x32 <=1 
C706: x25+x33 <=1 
C707: x25+x34 <=1 
C708: x25+x38-y25_38 <=1 
C709: x25+x39 <=1 
C710: x25+x41 <=1 
C711: x25+x43-y25_43 <=1 
C712: x25+x45 <=1 
C713: x25+x47 <=1 
C714: x25+x49 <=1 
C715: x25+x52 <=1 
C716: x25+x53-y25_53 <=1 
C717: x25+x54 <=1 
C718: x25+x55 <=1 
C719: x25+x56 <=1 
C720: x25+x58-y25_58 <=1 
C721: x25+x59 <=1 
C722: x26+x28 <=1 
C723: x26+x31 <=1 
C724: x26+x32 <=1 
C725: x26+x33 <=1 
C726: x26+x34-y26_34 <=1 
C727: x26+x35-y26_35 <=1 
C728: x26+x37 <=1 
C729: x26+x39-y26_39 <=1 
C730: x26+x40 <=1 
C731: x26+x41 <=1 
C732: x26+x42 <=1 
C733: x26+x43-y26_43 <=1 
C734: x26+x46 <=1 
C735: x26+x47 <=1 
C736: x26+x49-y26_49 <=1 
C737: x26+x50-y26_50 <=1 
C738: x26+x51-y26_51 <=1 
C739: x26+x53-y26_53 <=1 
C740: x26+x54-y26_54 <=1 
C741: x26+x55-y26_55 <=1 
C742: x26+x56 <=1 
C743: x26+x60 <=1 
C744: x27+x29-y27_29 <=1 
C745: x27+x30-y27_30 <=1 
C746: x27+x31 <=1 
C747: x27+x32 <=1 
C748: x27+x34-y27_34 <=1 
C749: x27+x35 <=1 
C750: x27+x36 <=1 
C751: x27+x39-y27_39 <=1 
C752: x27+x42-y27_42 <=1 
C753: x27+x43-y27_43 <=1 
C754: x27+x44-y27_44 <=1 
C755: x27+x45 <=1 
C756: x27+x46 <=1 
C757: x27+x47 <=1 
C758: x27+x49 <=1 
C759: x27+x52 <=1 
C760: x27+x53-y27_53 <=1 
C761: x27+x56 <=1 
C762: x27+x58 <=1 
C763: x27+x60 <=1 
C764: x28+x29 <=1 
C765: x28+x30-y28_30 <=1 
C766: x28+x31-y28_31 <=1 
C767: x28+x33 <=1 
C768: x28+x37-y28_37 <=1 
C769: x28+x39 <=1 
C770: x28+x43-y28_43 <=1 
C771: x28+x46 <=1 
C772: x28+x47-y28_47 <=1 
C773: x28+x49 <=1 
C774: x28+x52-y28_52 <=1 
C775: x28+x54-y28_54 <=1 
C776: x28+x55-y28_55 <=1 
C777: x28+x58 <=1 
C778: x28+x60 <=1 
C779: x29+x30 <=1 
C780: x29+x32-y29_32 <=1 
C781: x29+x34-y29_34 <=1 
C782: x29+x37 <=1 
C783: x29+x41-y29_41 <=1 
C784: x29+x42-y29_42 <=1 
C785: x29+x43-y29_43 <=1 
C786: x29+x45-y29_45 <=1 
C787: x29+x47-y29_47 <=1 
C788: x29+x49 <=1 
C789: x29+x50-y29_50 <=1 
C790: x29+x51 <=1 
C791: x29+x53-y29_53 <=1 
C792: x29+x54 <=1 
C793: x29+x55-y29_55 <=1 
C794: x29+x58-y29_58 <=1 
C795: x29+x59-y29_59 <=1 
C796: x29+x60-y29_60 <=1 
C797: x30+x31 <=1 
C798: x30+x32 <=1 
C799: x30+x35 <=1 
C800: x30+x37 <=1 
C801: x30+x38-y30_38 <=1 
C802: x30+x39-y30_39 <=1 
C803: x30+x40 <=1 
C804: x30+x42 <=1 
C805: x30+x44 <=1 
C806: x30+x45-y30_45 <=1 
C807: x30+x47-y30_47 <=1 
C808: x30+x48 <=1 
C809: x30+x50-y30_50 <=1 
C810: x30+x54-y30_54 <=1 
C811: x30+x55 <=1 
C812: x30+x56 <=1 
C813: x30+x60-y30_60 <=1 
C814: x31+x32 <=1 
C815: x31+x33 <=1 
C816: x31+x34-y31_34 <=1 
C817: x31+x35 <=1 
C818: x31+x36 <=1 
C819: x31+x37-y31_37 <=1 
C820: x31+x38 <=1 
C821: x31+x40-y31_40 <=1 
C822: x31+x41-y31_41 <=1 
C823: x31+x43-y31_43 <=1 
C824: x31+x44-y31_44 <=1 
C825: x31+x46 <=1 
C826: x31+x47-y31_47 <=1 
C827: x31+x49 <=1 
C828: x31+x50 <=1 
C829: x31+x51 <=1 
C830: x31+x52-y31_52 <=1 
C831: x31+x53 <=1 
C832: x31+x54-y31_54 <=1 
C833: x31+x55 <=1 
C834: x31+x56-y31_56 <=1 
C835: x31+x57-y31_57 <=1 
C836: x31+x58-y31_58 <=1 
C837: x32+x33 <=1 
C838: x32+x35 <=1 
C839: x32+x36-y32_36 <=1 
C840: x32+x37-y32_37 <=1 
C841: x32+x38-y32_38 <=1 
C842: x32+x39-y32_39 <=1 
C843: x32+x40-y32_40 <=1 
C844: x32+x41-y32_41 <=1 
C845: x32+x42-y32_42 <=1 
C846: x32+x43-y32_43 <=1 
C847: x32+x45 <=1 
C848: x32+x47-y32_47 <=1 
C849: x32+x48 <=1 
C850: x32+x49-y32_49 <=1 
C851: x32+x51 <=1 
C852: x32+x52-y32_52 <=1 
C853: x32+x56-y32_56 <=1 
C854: x32+x59-y32_59 <=1 
C855: x33+x34 <=1 
C856: x33+x36-y33_36 <=1 
C857: x33+x37 <=1 
C858: x33+x39 <=1 
C859: x33+x40 <=1 
C860: x33+x41 <=1 
C861: x33+x42 <=1 
C862: x33+x43 <=1 
C863: x33+x44-y33_44 <=1 
C864: x33+x46 <=1 
C865: x33+x47 <=1 
C866: x33+x48-y33_48 <=1 
C867: x33+x50 <=1 
C868: x33+x51 <=1 
C869: x33+x52 <=1 
C870: x33+x53-y33_53 <=1 
C871: x33+x54 <=1 
C872: x33+x55 <=1 
C873: x33+x57-y33_57 <=1 
C874: x33+x58-y33_58 <=1 
C875: x34+x37 <=1 
C876: x34+x39-y34_39 <=1 
C877: x34+x40 <=1 
C878: x34+x41 <=1 
C879: x34+x43 <=1 
C880: x34+x44 <=1 
C881: x34+x45 <=1 
C882: x34+x46 <=1 
C883: x34+x47 <=1 
C884: x34+x49-y34_49 <=1 
C885: x34+x51-y34_51 <=1 
C886: x34+x53-y34_53 <=1 
C887: x34+x54 <=1 
C888: x34+x56-y34_56 <=1 
C889: x34+x57-y34_57 <=1 
C890: x34+x58-y34_58 <=1 
C891: x34+x59-y34_59 <=1 
C892: x34+x60-y34_60 <=1 
C893: x35+x36-y35_36 <=1 
C894: x35+x37-y35_37 <=1 
C895: x35+x38-y35_38 <=1 
C896: x35+x39-y35_39 <=1 
C897: x35+x40-y35_40 <=1 
C898: x35+x41-y35_41 <=1 
C899: x35+x43-y35_43 <=1 
C900: x35+x44-y35_44 <=1 
C901: x35+x45-y35_45 <=1 
C902: x35+x46 <=1 
C903: x35+x47-y35_47 <=1 
C904: x35+x49-y35_49 <=1 
C905: x35+x52 <=1 
C906: x35+x53 <=1 
C907: x35+x55 <=1 
C908: x35+x56 <=1 
C909: x35+x60 <=1 
C910: x36+x37-y36_37 <=1 
C911: x36+x38-y36_38 <=1 
C912: x36+x39-y36_39 <=1 
C913: x36+x44 <=1 
C914: x36+x48 <=1 
C915: x36+x49 <=1 
C916: x36+x50 <=1 
C917: x36+x52-y36_52 <=1 
C918: x36+x54 <=1 
C919: x36+x56 <=1 
C920: x36+x58 <=1 
C921: x36+x60-y36_60 <=1 
C922: x37+x38 <=1 
C923: x37+x42-y37_42 <=1 
C924: x37+x43 <=1 
C925: x37+x45 <=1 
C926: x37+x46 <=1 
C927: x37+x47-y37_47 <=1 
C928: x37+x48-y37_48 <=1 
C929: x37+x49 <=1 
C930: x37+x52 <=1 
C931: x37+x54 <=1 
C932: x37+x55-y37_55 <=1 
C933: x37+x58 <=1 
C934: x37+x59 <=1 
C935: x37+x60-y37_60 <=1 
C936: x38+x39-y38_39 <=1 
C937: x38+x41 <=1 
C938: x38+x42-y38_42 <=1 
C939: x38+x45-y38_45 <=1 
C940: x38+x46-y38_46 <=1 
C941: x38+x47-y38_47 <=1 
C942: x38+x50-y38_50 <=1 
C943: x38+x53 <=1 
C944: x38+x56 <=1 
C945: x38+x57-y38_57 <=1 
C946: x38+x58-y38_58 <=1 
C947: x38+x59 <=1 
C948: x39+x41-y39_41 <=1 
C949: x39+x42-y39_42 <=1 
C950: x39+x44 <=1 
C951: x39+x45 <=1 
C952: x39+x46-y39_46 <=1 
C953: x39+x48-y39_48 <=1 
C954: x39+x50 <=1 
C955: x39+x51-y39_51 <=1 
C956: x39+x53 <=1 
C957: x39+x54-y39_54 <=1 
C958: x39+x55 <=1 
C959: x39+x56 <=1 
C960: x39+x57 <=1 
C961: x39+x58 <=1 
C962: x39+x59-y39_59 <=1 
C963: x40+x42-y40_42 <=1 
C964: x40+x44-y40_44 <=1 
C965: x40+x45 <=1 
C966: x40+x49-y40_49 <=1 
C967: x40+x50-y40_50 <=1 
C968: x40+x52-y40_52 <=1 
C969: x40+x53-y40_53 <=1 
C970: x40+x54 <=1 
C971: x40+x55-y40_55 <=1 
C972: x40+x56 <=1 
C973: x40+x59 <=1 
C974: x41+x43-y41_43 <=1 
C975: x41+x49 <=1 
C976: x41+x50-y41_50 <=1 
C977: x41+x51 <=1 
C978: x41+x54-y41_54 <=1 
C979: x41+x55 <=1 
C980: x41+x56 <=1 
C981: x41+x57 <=1 
C982: x41+x59 <=1 
C983: x41+x60 <=1 
C984: x42+x43-y42_43 <=1 
C985: x42+x44-y42_44 <=1 
C986: x42+x45-y42_45 <=1 
C987: x42+x48-y42_48 <=1 
C988: x42+x49-y42_49 <=1 
C989: x42+x50-y42_50 <=1 
C990: x42+x54-y42_54 <=1 
C991: x42+x55-y42_55 <=1 
C992: x42+x56 <=1 
C993: x42+x57-y42_57 <=1 
C994: x42+x59 <=1 
C995: x43+x45 <=1 
C996: x43+x47 <=1 
C997: x43+x48 <=1 
C998: x43+x51-y43_51 <=1 
C999: x43+x54-y43_54 <=1 
C1000: x43+x56-y43_56 <=1 
C1001: x43+x57-y43_57 <=1 
C1002: x43+x60-y43_60 <=1 
C1003: x44+x45-y44_45 <=1 
C1004: x44+x46 <=1 
C1005: x44+x47-y44_47 <=1 
C1006: x44+x48 <=1 
C1007: x44+x49-y44_49 <=1 
C1008: x44+x50-y44_50 <=1 
C1009: x44+x51 <=1 
C1010: x44+x52 <=1 
C1011: x44+x53-y44_53 <=1 
C1012: x44+x55-y44_55 <=1 
C1013: x44+x56 <=1 
C1014: x44+x57-y44_57 <=1 
C1015: x44+x59-y44_59 <=1 
C1016: x45+x47-y45_47 <=1 
C1017: x45+x49 <=1 
C1018: x45+x51 <=1 
C1019: x45+x52-y45_52 <=1 
C1020: x45+x56 <=1 
C1021: x45+x57 <=1 
C1022: x45+x60-y45_60 <=1 
C1023: x46+x47-y46_47 <=1 
C1024: x46+x48-y46_48 <=1 
C1025: x46+x49-y46_49 <=1 
C1026: x46+x50 <=1 
C1027: x46+x52 <=1 
C1028: x46+x53 <=1 
C1029: x46+x54-y46_54 <=1 
C1030: x46+x55-y46_55 <=1 
C1031: x46+x56-y46_56 <=1 
C1032: x46+x57-y46_57 <=1 
C1033: x46+x58 <=1 
C1034: x46+x59-y46_59 <=1 
C1035: x47+x51-y47_51 <=1 
C1036: x47+x52 <=1 
C1037: x47+x53-y47_53 <=1 
C1038: x47+x54 <=1 
C1039: x47+x55 <=1 
C1040: x47+x56-y47_56 <=1 
C1041: x47+x57-y47_57 <=1 
C1042: x47+x58-y47_58 <=1 
C1043: x47+x60 <=1 
C1044: x48+x49-y48_49 <=1 
C1045: x48+x50 <=1 
C1046: x48+x53-y48_53 <=1 
C1047: x48+x56 <=1 
C1048: x48+x57-y48_57 <=1 
C1049: x48+x59-y48_59 <=1 
C1050: x49+x50-y49_50 <=1 
C1051: x49+x51 <=1 
C1052: x49+x52-y49_52 <=1 
C1053: x49+x54-y49_54 <=1 
C1054: x49+x55 <=1 
C1055: x49+x57 <=1 
C1056: x49+x58-y49_58 <=1 
C1057: x49+x59-y49_59 <=1 
C1058: x49+x60 <=1 
C1059: x50+x51 <=1 
C1060: x50+x52-y50_52 <=1 
C1061: x50+x55 <=1 
C1062: x50+x56 <=1 
C1063: x50+x57-y50_57 <=1 
C1064: x50+x59 <=1 
C1065: x50+x60-y50_60 <=1 
C1066: x51+x52 <=1 
C1067: x51+x53-y51_53 <=1 
C1068: x51+x54 <=1 
C1069: x51+x55 <=1 
C1070: x51+x57-y51_57 <=1 
C1071: x52+x53 <=1 
C1072: x52+x54 <=1 
C1073: x52+x55 <=1 
C1074: x52+x57-y52_57 <=1 
C1075: x52+x58 <=1 
C1076: x52+x60-y52_60 <=1 
C1077: x53+x58 <=1 
C1078: x53+x59-y53_59 <=1 
C1079: x53+x60 <=1 
C1080: x54+x55-y54_55 <=1 
C1081: x54+x56-y54_56 <=1 
C1082: x54+x57-y54_57 <=1 
C1083: x54+x60 <=1 
C1084: x55+x58 <=1 
C1085: x55+x59 <=1 
C1086: x55+x60-y55_60 <=1 
C1087: x56+x57 <=1 
C1088: x56+x59 <=1 
C1089: x56+x60-y56_60 <=1 
C1090: x57+x59-y57_59 <=1 
C1091: x57+x60-y57_60 <=1 
C1092: x58+x59-y58_59 <=1 
C1093: x58+x60 <=1 

binary
x0
x1
x2
x3
x4
x5
x6
x7
x8
x9
x10
x11
x12
x13
x14
x15
x16
x17
x18
x19
x20
x21
x22
x23
x24
x25
x26
x27
x28
x29
x30
x31
x32
x33
x34
x35
x36
x37
x38
x39
x40
x41
x42
x43
x44
x45
x46
x47
x48
x49
x50
x51
x52
x53
x54
x55
x56
x57
x58
x59
x60
