problem_generation/data/GISP/train/er_n=61_m=1093_p=0.60_SET2_setparam=100.00_alpha=0.50_190.sol
objective value:                                 1177
x5                                                  1 	(obj:100)
x13                                                 1 	(obj:100)
x24                                                 1 	(obj:100)
x26                                                 1 	(obj:100)
x35                                                 1 	(obj:100)
x38                                                 1 	(obj:100)
x43                                                 1 	(obj:100)
x44                                                 1 	(obj:100)
x50                                                 1 	(obj:100)
x54                                                 1 	(obj:100)
x57                                                 1 	(obj:100)
x58                                                 1 	(obj:100)
y5_50                                               1 	(obj:-1)
y43_54                                              1 	(obj:-1)
y50_57                                              1 	(obj:-1)
y5_35                                               1 	(obj:-1)
y13_35                                              1 	(obj:-1)
y35_44                                              1 	(obj:-1)
y38_50                                              1 	(obj:-1)
y26_43                                              1 	(obj:-1)
y44_50                                              1 	(obj:-1)
y43_57                                              1 	(obj:-1)
y54_57                                              1 	(obj:-1)
y13_43                                              1 	(obj:-1)
y24_43                                              1 	(obj:-1)
y35_43                                              1 	(obj:-1)
y24_38                                              1 	(obj:-1)
y35_38                                              1 	(obj:-1)
y5_24                                               1 	(obj:-1)
y38_58                                              1 	(obj:-1)
y38_57                                              1 	(obj:-1)
y26_50                                              1 	(obj:-1)
y26_54                                              1 	(obj:-1)
y44_57                                              1 	(obj:-1)
y26_35                                              1 	(obj:-1)
